c File: flat50_3_0.col
c
c SOURCE: Joseph Culberson (joe@cs.ualberta.ca)
c DESCRIPTION: Quasi-random coloring problem
c              generated with flatness = 0
c                             probability = 0.139
c                             known coloring = 3
c                             random seed = 1759
c              Creation Date:  Tue Jun  9 12:17:12 1998
c Maximum degree = 8 Minimum degree = 1
c p edge 50 115
c cnf created by edge2cnf
p cnf 150 545
-1 -2 0
-1 -3 0
-2 -3 0
1 2 3 0
-4 -5 0
-4 -6 0
-5 -6 0
4 5 6 0
-7 -8 0
-7 -9 0
-8 -9 0
7 8 9 0
-10 -11 0
-10 -12 0
-11 -12 0
10 11 12 0
-13 -14 0
-13 -15 0
-14 -15 0
13 14 15 0
-16 -17 0
-16 -18 0
-17 -18 0
16 17 18 0
-19 -20 0
-19 -21 0
-20 -21 0
19 20 21 0
-22 -23 0
-22 -24 0
-23 -24 0
22 23 24 0
-25 -26 0
-25 -27 0
-26 -27 0
25 26 27 0
-28 -29 0
-28 -30 0
-29 -30 0
28 29 30 0
-31 -32 0
-31 -33 0
-32 -33 0
31 32 33 0
-34 -35 0
-34 -36 0
-35 -36 0
34 35 36 0
-37 -38 0
-37 -39 0
-38 -39 0
37 38 39 0
-40 -41 0
-40 -42 0
-41 -42 0
40 41 42 0
-43 -44 0
-43 -45 0
-44 -45 0
43 44 45 0
-46 -47 0
-46 -48 0
-47 -48 0
46 47 48 0
-49 -50 0
-49 -51 0
-50 -51 0
49 50 51 0
-52 -53 0
-52 -54 0
-53 -54 0
52 53 54 0
-55 -56 0
-55 -57 0
-56 -57 0
55 56 57 0
-58 -59 0
-58 -60 0
-59 -60 0
58 59 60 0
-61 -62 0
-61 -63 0
-62 -63 0
61 62 63 0
-64 -65 0
-64 -66 0
-65 -66 0
64 65 66 0
-67 -68 0
-67 -69 0
-68 -69 0
67 68 69 0
-70 -71 0
-70 -72 0
-71 -72 0
70 71 72 0
-73 -74 0
-73 -75 0
-74 -75 0
73 74 75 0
-76 -77 0
-76 -78 0
-77 -78 0
76 77 78 0
-79 -80 0
-79 -81 0
-80 -81 0
79 80 81 0
-82 -83 0
-82 -84 0
-83 -84 0
82 83 84 0
-85 -86 0
-85 -87 0
-86 -87 0
85 86 87 0
-88 -89 0
-88 -90 0
-89 -90 0
88 89 90 0
-91 -92 0
-91 -93 0
-92 -93 0
91 92 93 0
-94 -95 0
-94 -96 0
-95 -96 0
94 95 96 0
-97 -98 0
-97 -99 0
-98 -99 0
97 98 99 0
-100 -101 0
-100 -102 0
-101 -102 0
100 101 102 0
-103 -104 0
-103 -105 0
-104 -105 0
103 104 105 0
-106 -107 0
-106 -108 0
-107 -108 0
106 107 108 0
-109 -110 0
-109 -111 0
-110 -111 0
109 110 111 0
-112 -113 0
-112 -114 0
-113 -114 0
112 113 114 0
-115 -116 0
-115 -117 0
-116 -117 0
115 116 117 0
-118 -119 0
-118 -120 0
-119 -120 0
118 119 120 0
-121 -122 0
-121 -123 0
-122 -123 0
121 122 123 0
-124 -125 0
-124 -126 0
-125 -126 0
124 125 126 0
-127 -128 0
-127 -129 0
-128 -129 0
127 128 129 0
-130 -131 0
-130 -132 0
-131 -132 0
130 131 132 0
-133 -134 0
-133 -135 0
-134 -135 0
133 134 135 0
-136 -137 0
-136 -138 0
-137 -138 0
136 137 138 0
-139 -140 0
-139 -141 0
-140 -141 0
139 140 141 0
-142 -143 0
-142 -144 0
-143 -144 0
142 143 144 0
-145 -146 0
-145 -147 0
-146 -147 0
145 146 147 0
-148 -149 0
-148 -150 0
-149 -150 0
148 149 150 0
-58 -1 0
-59 -2 0
-60 -3 0
-76 -1 0
-77 -2 0
-78 -3 0
-79 -1 0
-80 -2 0
-81 -3 0
-94 -1 0
-95 -2 0
-96 -3 0
-112 -1 0
-113 -2 0
-114 -3 0
-115 -1 0
-116 -2 0
-117 -3 0
-148 -1 0
-149 -2 0
-150 -3 0
-70 -4 0
-71 -5 0
-72 -6 0
-148 -4 0
-149 -5 0
-150 -6 0
-52 -7 0
-53 -8 0
-54 -9 0
-67 -7 0
-68 -8 0
-69 -9 0
-94 -7 0
-95 -8 0
-96 -9 0
-97 -7 0
-98 -8 0
-99 -9 0
-115 -7 0
-116 -8 0
-117 -9 0
-139 -7 0
-140 -8 0
-141 -9 0
-61 -10 0
-62 -11 0
-63 -12 0
-82 -10 0
-83 -11 0
-84 -12 0
-91 -10 0
-92 -11 0
-93 -12 0
-97 -10 0
-98 -11 0
-99 -12 0
-118 -10 0
-119 -11 0
-120 -12 0
-142 -10 0
-143 -11 0
-144 -12 0
-52 -13 0
-53 -14 0
-54 -15 0
-76 -13 0
-77 -14 0
-78 -15 0
-85 -13 0
-86 -14 0
-87 -15 0
-88 -13 0
-89 -14 0
-90 -15 0
-115 -13 0
-116 -14 0
-117 -15 0
-127 -13 0
-128 -14 0
-129 -15 0
-142 -13 0
-143 -14 0
-144 -15 0
-118 -16 0
-119 -17 0
-120 -18 0
-127 -16 0
-128 -17 0
-129 -18 0
-148 -16 0
-149 -17 0
-150 -18 0
-61 -19 0
-62 -20 0
-63 -21 0
-70 -19 0
-71 -20 0
-72 -21 0
-79 -19 0
-80 -20 0
-81 -21 0
-91 -19 0
-92 -20 0
-93 -21 0
-139 -19 0
-140 -20 0
-141 -21 0
-91 -22 0
-92 -23 0
-93 -24 0
-94 -22 0
-95 -23 0
-96 -24 0
-106 -22 0
-107 -23 0
-108 -24 0
-121 -22 0
-122 -23 0
-123 -24 0
-148 -22 0
-149 -23 0
-150 -24 0
-109 -25 0
-110 -26 0
-111 -27 0
-142 -25 0
-143 -26 0
-144 -27 0
-67 -28 0
-68 -29 0
-69 -30 0
-85 -28 0
-86 -29 0
-87 -30 0
-100 -28 0
-101 -29 0
-102 -30 0
-103 -28 0
-104 -29 0
-105 -30 0
-109 -28 0
-110 -29 0
-111 -30 0
-112 -28 0
-113 -29 0
-114 -30 0
-136 -28 0
-137 -29 0
-138 -30 0
-91 -31 0
-92 -32 0
-93 -33 0
-109 -31 0
-110 -32 0
-111 -33 0
-121 -31 0
-122 -32 0
-123 -33 0
-130 -31 0
-131 -32 0
-132 -33 0
-70 -34 0
-71 -35 0
-72 -36 0
-94 -34 0
-95 -35 0
-96 -36 0
-112 -34 0
-113 -35 0
-114 -36 0
-124 -34 0
-125 -35 0
-126 -36 0
-130 -34 0
-131 -35 0
-132 -36 0
-133 -34 0
-134 -35 0
-135 -36 0
-55 -37 0
-56 -38 0
-57 -39 0
-100 -37 0
-101 -38 0
-102 -39 0
-136 -37 0
-137 -38 0
-138 -39 0
-82 -40 0
-83 -41 0
-84 -42 0
-88 -40 0
-89 -41 0
-90 -42 0
-124 -40 0
-125 -41 0
-126 -42 0
-64 -43 0
-65 -44 0
-66 -45 0
-109 -43 0
-110 -44 0
-111 -45 0
-115 -43 0
-116 -44 0
-117 -45 0
-142 -43 0
-143 -44 0
-144 -45 0
-67 -46 0
-68 -47 0
-69 -48 0
-73 -46 0
-74 -47 0
-75 -48 0
-76 -46 0
-77 -47 0
-78 -48 0
-103 -46 0
-104 -47 0
-105 -48 0
-52 -49 0
-53 -50 0
-54 -51 0
-70 -49 0
-71 -50 0
-72 -51 0
-97 -49 0
-98 -50 0
-99 -51 0
-103 -52 0
-104 -53 0
-105 -54 0
-106 -52 0
-107 -53 0
-108 -54 0
-109 -52 0
-110 -53 0
-111 -54 0
-127 -52 0
-128 -53 0
-129 -54 0
-124 -55 0
-125 -56 0
-126 -57 0
-130 -55 0
-131 -56 0
-132 -57 0
-142 -55 0
-143 -56 0
-144 -57 0
-103 -58 0
-104 -59 0
-105 -60 0
-127 -58 0
-128 -59 0
-129 -60 0
-136 -58 0
-137 -59 0
-138 -60 0
-148 -61 0
-149 -62 0
-150 -63 0
-124 -64 0
-125 -65 0
-126 -66 0
-142 -64 0
-143 -65 0
-144 -66 0
-106 -67 0
-107 -68 0
-108 -69 0
-130 -67 0
-131 -68 0
-132 -69 0
-148 -67 0
-149 -68 0
-150 -69 0
-109 -70 0
-110 -71 0
-111 -72 0
-130 -73 0
-131 -74 0
-132 -75 0
-115 -76 0
-116 -77 0
-117 -78 0
-115 -79 0
-116 -80 0
-117 -81 0
-118 -79 0
-119 -80 0
-120 -81 0
-121 -79 0
-122 -80 0
-123 -81 0
-142 -82 0
-143 -83 0
-144 -84 0
-115 -85 0
-116 -86 0
-117 -87 0
-133 -85 0
-134 -86 0
-135 -87 0
-136 -85 0
-137 -86 0
-138 -87 0
-139 -88 0
-140 -89 0
-141 -90 0
-145 -88 0
-146 -89 0
-147 -90 0
-121 -91 0
-122 -92 0
-123 -93 0
-127 -91 0
-128 -92 0
-129 -93 0
-130 -91 0
-131 -92 0
-132 -93 0
-103 -94 0
-104 -95 0
-105 -96 0
-115 -94 0
-116 -95 0
-117 -96 0
-124 -94 0
-125 -95 0
-126 -96 0
-106 -97 0
-107 -98 0
-108 -99 0
-139 -97 0
-140 -98 0
-141 -99 0
-142 -97 0
-143 -98 0
-144 -99 0
-109 -100 0
-110 -101 0
-111 -102 0
